
Gurobi 11.0.1 (win64) logging started Sat Mar 16 01:45:52 2024

Set parameter LogFile to value "res/logfile/radiationm40-10-02log.txt"
Gurobi Optimizer version 11.0.1 build v11.0.1rc0 (win64 - Windows 11.0 (22621.2))

CPU model: AMD Ryzen Threadripper PRO 5975WX 32-Cores, instruction set [SSE2|AVX|AVX2]
Thread count: 32 physical cores, 64 logical processors, using up to 10 threads

Optimize a model with 225749 rows, 172013 columns and 512886 nonzeros
Model fingerprint: 0x55a3e3d7
Variable types: 62400 continuous, 109613 integer (68861 binary)
Coefficient statistics:
  Matrix range     [1e+00, 3e+03]
  Objective range  [1e+00, 1e+00]
  Bounds range     [1e+00, 1e+07]
  RHS range        [1e+00, 1e+01]
Presolve removed 194858 rows and 143892 columns
Presolve time: 0.08s
Presolved: 30891 rows, 28121 columns, 89012 nonzeros
Variable types: 0 continuous, 28121 integer (12017 binary)
Found heuristic solution: objective 2563200.0000
Found heuristic solution: objective 2561598.0000

Root relaxation: objective 1.553180e+05, 9133 iterations, 0.19 seconds (0.26 work units)

    Nodes    |    Current Node    |     Objective Bounds      |     Work
 Expl Unexpl |  Obj  Depth IntInf | Incumbent    BestBd   Gap | It/Node Time

     0     0 155317.982    0 2541 2561598.00 155317.982  93.9%     -    2s
H    0     0                    155394.00000 155317.982  0.05%     -    2s
     0     0 155320.218    0 4193 155394.000 155320.218  0.05%     -    4s
     0     0 155320.880    0 3642 155394.000 155320.880  0.05%     -    4s
     0     0 155321.403    0 3430 155394.000 155321.403  0.05%     -    4s
     0     0 155323.000    0 1830 155394.000 155323.000  0.05%     -    7s
     0     0 155323.248    0 2049 155394.000 155323.248  0.05%     -    8s
     0     0 155324.000    0 1887 155394.000 155324.000  0.05%     -    8s
     0     0 155324.000    0 1880 155394.000 155324.000  0.05%     -    8s
H    0     0                    155393.00000 155324.000  0.04%     -   10s
H    0     0                    155390.00000 155324.000  0.04%     -   10s
H    0     0                    155385.00000 155324.000  0.04%     -   10s
H    0     0                    155377.00000 155324.000  0.03%     -   10s
H    0     0                    155373.00000 155324.000  0.03%     -   10s
     0     0 155324.000    0 3170 155373.000 155324.000  0.03%     -   10s
     0     0 155324.000    0 2989 155373.000 155324.000  0.03%     -   11s
H    0     0                    155371.00000 155324.226  0.03%     -   12s
H    0     0                    155366.00000 155324.226  0.03%     -   12s
     0     0 155324.226    0 3176 155366.000 155324.226  0.03%     -   12s
     0     0 155324.226    0 3175 155366.000 155324.226  0.03%     -   12s
H    0     0                    155363.00000 155325.000  0.02%     -   13s
     0     0 155325.000    0 2970 155363.000 155325.000  0.02%     -   13s
     0     0 155325.000    0 2873 155363.000 155325.000  0.02%     -   13s
     0     0 155325.000    0 2882 155363.000 155325.000  0.02%     -   13s
     0     0 155325.000    0 2862 155363.000 155325.000  0.02%     -   13s
H    0     0                    155358.00000 155325.000  0.02%     -   14s
H    0     0                    155357.00000 155325.000  0.02%     -   14s
     0     0 155325.000    0 3206 155357.000 155325.000  0.02%     -   14s
H    0     0                    155353.00000 155325.090  0.02%     -   15s
     0     0 155325.090    0 3204 155353.000 155325.090  0.02%     -   15s
     0     0 155326.000    0 2915 155353.000 155326.000  0.02%     -   16s
     0     0 155326.000    0 2750 155353.000 155326.000  0.02%     -   16s
H    0     0                    155352.00000 155326.000  0.02%     -   16s
     0     0 155326.000    0 2961 155352.000 155326.000  0.02%     -   16s
     0     0 155326.000    0 1653 155352.000 155326.000  0.02%     -   19s
     0     2 155326.000    0 1285 155352.000 155326.000  0.02%     -   21s
H   78    71                    155351.00000 155326.000  0.02%  2374   24s
    89   120 155327.000   10 2051 155351.000 155326.000  0.02%  2154   25s
H  143   177                    155344.00000 155326.000  0.01%  1486   26s
H  378   481                    155342.00000 155326.000  0.01%   733   29s
   526  1162 155327.000   63 1843 155342.000 155326.000  0.01%   684   32s
H  798  1162                    155341.00000 155326.000  0.01%   486   32s
H  800  1162                    155339.00000 155326.000  0.01%   485   32s

Cutting planes:
  Learned: 20
  Gomory: 41
  Cover: 652
  Implied bound: 500
  Clique: 9
  MIR: 1103
  StrongCG: 214
  Flow cover: 168
  GUB cover: 44
  Inf proof: 1
  Zero half: 795
  Network: 1
  RLT: 36
  Relax-and-lift: 131

Explored 1215 nodes (749999 simplex iterations) in 32.68 seconds (29.71 work units)
Thread count was 10 (of 64 available processors)

Solution count 10: 155339 155341 155342 ... 155363

Optimal solution found (tolerance 1.00e-04)
Best objective 1.553390000000e+05, best bound 1.553260000000e+05, gap 0.0084%

User-callback calls 3494, time in user-callback 0.00 sec
